param maxNode := 12;

param: Links: link_nodeA link_nodeZ link_fibreMax link_fibreUsageCost link_fibreSignalMax :=
1 1 11 2 1 96
2 1 3 2 1 96
3 2 3 2 1 96
4 2 8 2 1 96
5 2 11 2 1 96
6 3 10 2 1 96
7 4 5 2 1 96
8 4 7 2 1 96
9 4 12 2 1 96
10 5 9 2 1 96
11 5 11 2 1 96
12 6 9 2 1 96
13 6 11 2 1 96
14 7 11 2 1 96
15 7 12 2 1 96
16 8 10 2 1 96
17 8 12 2 1 96
18 1 6 2 1 96
;

param: Demands: demand_maxPath, demand_volume :=
1 4 27
2 3 14
3 6 17
4 6 30
5 4 15
6 4 30
7 5 19
8 4 15
9 4 11
10 4 11
11 7 18
12 4 24
13 5 21
14 5 14
15 5 16
16 5 11
17 3 19
18 4 12
19 3 26
20 4 18
21 5 18
22 6 20
23 4 15
24 4 15
25 5 18
26 3 23
27 5 17
28 2 22
29 4 11
30 4 24
31 3 26
32 6 13
33 3 23
34 4 21
35 4 29
36 2 11
37 5 28
38 3 25
39 4 13
40 4 12
41 4 10
42 3 25
43 4 16
44 5 20
45 5 20
46 5 25
47 5 25
48 3 20
49 4 22
50 4 29
51 6 24
52 3 17
53 5 21
54 5 29

# To complex problem

# 55 4 28
# 56 4 20
# 57 3 15
# 58 2 13
# 59 7 23
# 60 2 22
# 61 1 24
# 62 4 19
# 63 4 27
# 64 5 21
# 65 2 17
# 66 5 23
;

set Demand_pathLinks[ 1, 1 ] := 1 5 ;
set Demand_pathLinks[ 1, 2 ] := 2 3 ;
set Demand_pathLinks[ 1, 3 ] := 18 13 5 ;
set Demand_pathLinks[ 1, 4 ] := 2 6 16 4 ;

set Demand_pathLinks[ 2, 1 ] := 2 ;
set Demand_pathLinks[ 2, 2 ] := 1 5 3 ;
set Demand_pathLinks[ 2, 3 ] := 18 13 5 3 ;

set Demand_pathLinks[ 3, 1 ] := 1 14 8 ;
set Demand_pathLinks[ 3, 2 ] := 1 11 7 ;
set Demand_pathLinks[ 3, 3 ] := 18 12 10 7 ;
set Demand_pathLinks[ 3, 4 ] := 18 13 14 8 ;
set Demand_pathLinks[ 3, 5 ] := 18 13 11 7 ;
set Demand_pathLinks[ 3, 6 ] := 1 14 15 9 ;

set Demand_pathLinks[ 4, 1 ] := 1 11 ;
set Demand_pathLinks[ 4, 2 ] := 18 12 10 ;
set Demand_pathLinks[ 4, 3 ] := 18 13 11 ;
set Demand_pathLinks[ 4, 4 ] := 1 13 12 10 ;
set Demand_pathLinks[ 4, 5 ] := 1 14 8 7 ;
set Demand_pathLinks[ 4, 6 ] := 2 3 5 11 ;

set Demand_pathLinks[ 5, 1 ] := 18 ;
set Demand_pathLinks[ 5, 2 ] := 1 13 ;
set Demand_pathLinks[ 5, 3 ] := 1 11 10 12 ;
set Demand_pathLinks[ 5, 4 ] := 2 3 5 13 ;

set Demand_pathLinks[ 6, 1 ] := 1 14 ;
set Demand_pathLinks[ 6, 2 ] := 18 13 14 ;
set Demand_pathLinks[ 6, 3 ] := 1 11 7 8 ;
set Demand_pathLinks[ 6, 4 ] := 2 3 5 14 ;

set Demand_pathLinks[ 7, 1 ] := 1 5 4 ;
set Demand_pathLinks[ 7, 2 ] := 2 3 4 ;
set Demand_pathLinks[ 7, 3 ] := 2 6 16 ;
set Demand_pathLinks[ 7, 4 ] := 18 13 5 4 ;
set Demand_pathLinks[ 7, 5 ] := 1 14 15 17; 

set Demand_pathLinks[ 8, 1 ] := 18 12 ;
set Demand_pathLinks[ 8, 2 ] := 1 13 12 ;
set Demand_pathLinks[ 8, 3 ] := 1 11 10 ;
set Demand_pathLinks[ 8, 4 ] := 18 13 11 10 ;

set Demand_pathLinks[ 9, 1 ] := 2 6 ;
set Demand_pathLinks[ 9, 2 ] := 1 5 3 6 ;
set Demand_pathLinks[ 9, 3 ] := 1 5 4 16 ;
set Demand_pathLinks[ 9, 4 ] := 2 3 4 16 ;

set Demand_pathLinks[ 10, 1 ] := 1 ;
set Demand_pathLinks[ 10, 2 ] := 18 13 ;
set Demand_pathLinks[ 10, 3 ] := 2 3 5 ;
set Demand_pathLinks[ 10, 4 ] := 18 12 10 11 ;

set Demand_pathLinks[ 11, 1 ] := 1 14 15 ;
set Demand_pathLinks[ 11, 2 ] := 18 13 14 15 ;
set Demand_pathLinks[ 11, 3 ] := 1 5 4 17 ;
set Demand_pathLinks[ 11, 4 ] := 1 14 8 9 ;
set Demand_pathLinks[ 11, 5 ] := 1 11 7 9 ;
set Demand_pathLinks[ 11, 6 ] := 2 3 4 17 ;
set Demand_pathLinks[ 11, 7 ] := 2 6 16 17 ;

set Demand_pathLinks[ 12, 1 ] := 3 ;
set Demand_pathLinks[ 12, 2 ] := 5 1 2 ;
set Demand_pathLinks[ 12, 3 ] := 4 16 6 ;
set Demand_pathLinks[ 12, 4 ] := 5 13 18 2 ;

set Demand_pathLinks[ 13, 1 ] := 5 14 8 ;
set Demand_pathLinks[ 13, 2 ] := 5 11 7 ;
set Demand_pathLinks[ 13, 3 ] := 4 17 9 ;
set Demand_pathLinks[ 13, 4 ] := 5 14 15 9 ;
set Demand_pathLinks[ 13, 5 ] := 4 17 15 8 ;

set Demand_pathLinks[ 14, 1 ] := 5 11 ;
set Demand_pathLinks[ 14, 2 ] := 5 13 12 10 ;
set Demand_pathLinks[ 14, 3 ] := 5 14 8 7 ;
set Demand_pathLinks[ 14, 4 ] := 3 2 1 11 ;
set Demand_pathLinks[ 14, 5 ] := 4 17 9 7 ;

set Demand_pathLinks[ 15, 1 ] := 5 13 ;
set Demand_pathLinks[ 15, 2 ] := 5 1 18 ;
set Demand_pathLinks[ 15, 3 ] := 3 2 18 ;
set Demand_pathLinks[ 15, 4 ] := 5 11 10 12 ;
set Demand_pathLinks[ 15, 5 ] := 3 2 1 13 ;

set Demand_pathLinks[ 16, 1 ] := 5 14 ;
set Demand_pathLinks[ 16, 2 ] := 4 17 15 ;
set Demand_pathLinks[ 16, 3 ] := 5 11 7 8 ;
set Demand_pathLinks[ 16, 4 ] := 3 2 1 14 ;
set Demand_pathLinks[ 16, 5 ] := 4 17 9 8 ;

set Demand_pathLinks[ 17, 1 ] := 4 ;
set Demand_pathLinks[ 17, 2 ] := 3 6 16 ;
set Demand_pathLinks[ 17, 3 ] := 5 14 15 17 ;

set Demand_pathLinks[ 18, 1 ] := 5 13 12 ;
set Demand_pathLinks[ 18, 2 ] := 5 11 10 ;
set Demand_pathLinks[ 18, 3 ] := 5 1 18 12 ;
set Demand_pathLinks[ 18, 4 ] := 3 2 18 12 ;

set Demand_pathLinks[ 19, 1 ] := 3 6 ;
set Demand_pathLinks[ 19, 2 ] := 4 16 ;
set Demand_pathLinks[ 19, 3 ] := 5 1 2 6 ;

set Demand_pathLinks[ 20, 1 ] := 5 ;
set Demand_pathLinks[ 20, 2 ] := 3 2 1 ;
set Demand_pathLinks[ 20, 3 ] := 3 2 18 13 ;
set Demand_pathLinks[ 20, 4 ] := 4 17 15 14 ;

set Demand_pathLinks[ 21, 1 ] := 4 17 ;
set Demand_pathLinks[ 21, 2 ] := 5 14 15 ;
set Demand_pathLinks[ 21, 3 ] := 5 14 8 9 ;
set Demand_pathLinks[ 21, 4 ] := 5 11 7 9 ;
set Demand_pathLinks[ 21, 5 ] := 3 6 16 17 ;

set Demand_pathLinks[ 22, 1 ] := 2 1 14 8 ;
set Demand_pathLinks[ 22, 2 ] := 2 1 11 7 ;
set Demand_pathLinks[ 22, 3 ] := 3 5 14 8 ;
set Demand_pathLinks[ 22, 4 ] := 3 5 11 7 ;
set Demand_pathLinks[ 22, 5 ] := 3 4 17 9 ;
set Demand_pathLinks[ 22, 6 ] := 6 16 17 9 ;

set Demand_pathLinks[ 23, 1 ] := 2 1 11 ;
set Demand_pathLinks[ 23, 2 ] := 3 5 11 ;
set Demand_pathLinks[ 23, 3 ] := 2 18 12 10 ;
set Demand_pathLinks[ 23, 4 ] := 2 18 13 11 ;

set Demand_pathLinks[ 24, 1 ] := 2 18 ;
set Demand_pathLinks[ 24, 2 ] := 2 1 13 ;
set Demand_pathLinks[ 24, 3 ] := 3 5 13 ;
set Demand_pathLinks[ 24, 4 ] := 3 5 1 18 ;

set Demand_pathLinks[ 25, 1 ] := 2 1 14 ;
set Demand_pathLinks[ 25, 2 ] := 3 5 14 ;
set Demand_pathLinks[ 25, 3 ] := 2 18 13 14 ;
set Demand_pathLinks[ 25, 4 ] := 3 4 17 15 ;
set Demand_pathLinks[ 25, 5 ] := 6 16 17 15 ;

set Demand_pathLinks[ 26, 1 ] := 3 4 ;
set Demand_pathLinks[ 26, 2 ] := 6 16 ;
set Demand_pathLinks[ 26, 3 ] := 2 1 5 4 ;

set Demand_pathLinks[ 27, 1 ] := 2 18 12 ;
set Demand_pathLinks[ 27, 2 ] := 2 1 13 12 ;
set Demand_pathLinks[ 27, 3 ] := 2 1 11 10 ;
set Demand_pathLinks[ 27, 4 ] := 3 5 13 12 ;
set Demand_pathLinks[ 27, 5 ] := 3 5 11 10 ;

set Demand_pathLinks[ 28, 1 ] := 6 ;
set Demand_pathLinks[ 28, 2 ] := 3 4 16 ;

set Demand_pathLinks[ 29, 1 ] := 2 1 ;
set Demand_pathLinks[ 29, 2 ] := 3 5 ;
set Demand_pathLinks[ 29, 3 ] := 2 18 13 ;
set Demand_pathLinks[ 29, 4 ] := 6 16 4 5 ;

set Demand_pathLinks[ 30, 1 ] := 3 4 17 ;
set Demand_pathLinks[ 30, 2 ] := 6 16 17 ;
set Demand_pathLinks[ 30, 3 ] := 2 1 14 15 ;
set Demand_pathLinks[ 30, 4 ] := 3 5 14 15 ;

set Demand_pathLinks[ 31, 1 ] := 7 ;
set Demand_pathLinks[ 31, 2 ] := 8 14 11 ;
set Demand_pathLinks[ 31, 3 ] := 9 15 14 11 ;

set Demand_pathLinks[ 32, 1 ] := 8 14 13 ;
set Demand_pathLinks[ 32, 2 ] := 7 10 12 ;
set Demand_pathLinks[ 32, 3 ] := 7 11 13 ;
set Demand_pathLinks[ 32, 4 ] := 8 14 1 18 ;
set Demand_pathLinks[ 32, 5 ] := 7 11 1 18 ;
set Demand_pathLinks[ 32, 6 ] := 9 15 14 13 ;

set Demand_pathLinks[ 33, 1 ] := 8 ;
set Demand_pathLinks[ 33, 2 ] := 9 15 ;
set Demand_pathLinks[ 33, 3 ] := 7 11 14 ;

set Demand_pathLinks[ 34, 1 ] := 9 17 ;
set Demand_pathLinks[ 34, 2 ] := 8 15 17 ;
set Demand_pathLinks[ 34, 3 ] := 8 14 5 4 ;
set Demand_pathLinks[ 34, 4 ] := 7 11 5 4 ;

set Demand_pathLinks[ 35, 1 ] := 7 10 ;
set Demand_pathLinks[ 35, 2 ] := 8 14 13 12 ;
set Demand_pathLinks[ 35, 3 ] := 8 14 11 10 ;
set Demand_pathLinks[ 35, 4 ] := 7 11 13 12 ;

set Demand_pathLinks[ 36, 1 ] := 9 17 16 ;
set Demand_pathLinks[ 36, 2 ] := 8 15 17 16 ;

set Demand_pathLinks[ 37, 1 ] := 8 14 ;
set Demand_pathLinks[ 37, 2 ] := 7 11 ;
set Demand_pathLinks[ 37, 3 ] := 9 15 14 ;
set Demand_pathLinks[ 37, 4 ] := 7 10 12 13 ;
set Demand_pathLinks[ 37, 5 ] := 9 17 4 5 ;

set Demand_pathLinks[ 38, 1 ] := 9 ;
set Demand_pathLinks[ 38, 2 ] := 8 15 ;
set Demand_pathLinks[ 38, 3 ] := 7 11 14 15 ;

set Demand_pathLinks[ 39, 1 ] := 10 12 ;
set Demand_pathLinks[ 39, 2 ] := 11 13 ;
set Demand_pathLinks[ 39, 3 ] := 11 1 18 ;
set Demand_pathLinks[ 39, 4 ] := 7 8 14 13 ;

set Demand_pathLinks[ 40, 1 ] := 11 14 ;
set Demand_pathLinks[ 40, 2 ] := 7 8 ;
set Demand_pathLinks[ 40, 3 ] := 7 9 15 ;
set Demand_pathLinks[ 40, 4 ] := 10 12 13 14 ;

set Demand_pathLinks[ 41, 1 ] := 11 5 4 ;
set Demand_pathLinks[ 41, 2 ] := 7 9 17 ;
set Demand_pathLinks[ 41, 3 ] := 11 14 15 17 ;
set Demand_pathLinks[ 41, 4 ] := 7 8 15 17 ;

set Demand_pathLinks[ 42, 1 ] := 10 ;
set Demand_pathLinks[ 42, 2 ] := 11 13 12 ;
set Demand_pathLinks[ 42, 3 ] := 11 1 18 12 ;

set Demand_pathLinks[ 43, 1 ] := 11 1 2 6 ;
set Demand_pathLinks[ 43, 2 ] := 11 5 3 6 ;
set Demand_pathLinks[ 43, 3 ] := 11 5 4 16 ;
set Demand_pathLinks[ 43, 4 ] := 7 9 17 16 ;

set Demand_pathLinks[ 44, 1 ] := 11 ;
set Demand_pathLinks[ 44, 2 ] := 10 12 13 ;
set Demand_pathLinks[ 44, 3 ] := 7 8 14 ;
set Demand_pathLinks[ 44, 4 ] := 10 12 18 1 ;
set Demand_pathLinks[ 44, 5 ] := 7 9 15 14 ;

set Demand_pathLinks[ 45, 1 ] := 7 9 ;
set Demand_pathLinks[ 45, 2 ] := 11 14 15 ;
set Demand_pathLinks[ 45, 3 ] := 7 8 15 ;
set Demand_pathLinks[ 45, 4 ] := 11 5 4 17 ;
set Demand_pathLinks[ 45, 5 ] := 11 14 8 9 ;

set Demand_pathLinks[ 46, 1 ] := 13 14 ;
set Demand_pathLinks[ 46, 2 ] := 18 1 14 ;
set Demand_pathLinks[ 46, 3 ] := 12 10 11 14 ;
set Demand_pathLinks[ 46, 4 ] := 12 10 7 8 ;
set Demand_pathLinks[ 46, 5 ] := 13 11 7 8 ;

set Demand_pathLinks[ 47, 1 ] := 13 5 4 ;
set Demand_pathLinks[ 47, 2 ] := 18 1 5 4 ;
set Demand_pathLinks[ 47, 3 ] := 18 2 3 4 ;
set Demand_pathLinks[ 47, 4 ] := 18 2 6 16 ;
set Demand_pathLinks[ 47, 5 ] := 13 14 15 17 ;

set Demand_pathLinks[ 48, 1 ] := 12 ;
set Demand_pathLinks[ 48, 2 ] := 13 11 10 ;
set Demand_pathLinks[ 48, 3 ] := 18 1 11 10; 

set Demand_pathLinks[ 49, 1 ] := 18 2 6 ;
set Demand_pathLinks[ 49, 2 ] := 13 1 2 6 ;
set Demand_pathLinks[ 49, 3 ] := 13 5 3 6 ;
set Demand_pathLinks[ 49, 4 ] := 13 5 4 16 ;

set Demand_pathLinks[ 50, 1 ] := 13 ;
set Demand_pathLinks[ 50, 2 ] := 18 1; 
set Demand_pathLinks[ 50, 3 ] := 12 10 11 ;
set Demand_pathLinks[ 50, 4 ] := 18 2 3 5 ;

set Demand_pathLinks[ 51, 1 ] := 13 14 15 ;
set Demand_pathLinks[ 51, 2 ] := 12 10 7 9 ;
set Demand_pathLinks[ 51, 3 ] := 18 1 14 15 ;
set Demand_pathLinks[ 51, 4 ] := 13 5 4 17 ;
set Demand_pathLinks[ 51, 5 ] := 13 14 8 9 ;
set Demand_pathLinks[ 51, 6 ] := 13 11 7 9 ;

set Demand_pathLinks[ 52, 1 ] := 15 17 ;
set Demand_pathLinks[ 52, 2 ] := 14 5 4 ;
set Demand_pathLinks[ 52, 3 ] := 8 9 17 ;

set Demand_pathLinks[ 53, 1 ] := 14 13 12 ;
set Demand_pathLinks[ 53, 2 ] := 14 11 10 ;
set Demand_pathLinks[ 53, 3 ] := 8 7 10 ;
set Demand_pathLinks[ 53, 4 ] := 14 1 18 12 ;
set Demand_pathLinks[ 53, 5 ] := 15 9 7 10 ;

set Demand_pathLinks[ 54, 1 ] := 15 17 16 ;
set Demand_pathLinks[ 54, 2 ] := 14 1 2 6 ;
set Demand_pathLinks[ 54, 3 ] := 14 5 3 6 ;
set Demand_pathLinks[ 54, 4 ] := 14 5 4 16 ;
set Demand_pathLinks[ 54, 5 ] := 8 9 17 16 ;

# To complex problem

# set Demand_pathLinks[ 55, 1 ] := 14 ;
# set Demand_pathLinks[ 55, 2 ] := 8 7 11 ;
# set Demand_pathLinks[ 55, 3 ] := 15 9 7 11 ;
# set Demand_pathLinks[ 55, 4 ] := 15 17 4 5 ;

# set Demand_pathLinks[ 56, 1 ] := 15 ;
# set Demand_pathLinks[ 56, 2 ] := 8 9 ;
# set Demand_pathLinks[ 56, 3 ] := 14 5 4 17 ;
# set Demand_pathLinks[ 56, 4 ] := 14 11 7 9 ;

# set Demand_pathLinks[ 57, 1 ] := 4 5 13 12 ;
# set Demand_pathLinks[ 57, 2 ] := 4 5 11 10 ;
# set Demand_pathLinks[ 57, 3 ] := 17 9 7 10 ;

# set Demand_pathLinks[ 58, 1 ] := 16 ;
# set Demand_pathLinks[ 58, 2 ] := 4 3 6 ;

# set Demand_pathLinks[ 59, 1 ] := 4 5 ;
# set Demand_pathLinks[ 59, 2 ] := 17 15 14 ;
# set Demand_pathLinks[ 59, 3 ] := 4 3 2 1 ;
# set Demand_pathLinks[ 59, 4 ] := 17 9 8 14 ;
# set Demand_pathLinks[ 59, 5 ] := 17 9 7 11 ;
# set Demand_pathLinks[ 59, 6 ] := 16 6 2 1 ;
# set Demand_pathLinks[ 59, 7 ] := 16 6 3 5 ;

# set Demand_pathLinks[ 60, 1 ] := 17 ;
# set Demand_pathLinks[ 60, 2 ] := 4 5 14 15 ;

# set Demand_pathLinks[ 61, 1 ] := 12 18 2 6 ;

# set Demand_pathLinks[ 62, 1 ] := 12 13 ;
# set Demand_pathLinks[ 62, 2 ] := 10 11 ;
# set Demand_pathLinks[ 62, 3 ] := 12 18 1; 
# set Demand_pathLinks[ 62, 4 ] := 10 7 8 14 ;

# set Demand_pathLinks[ 63, 1 ] := 10 7 9 ;
# set Demand_pathLinks[ 63, 2 ] := 12 13 14 15 ;
# set Demand_pathLinks[ 63, 3 ] := 10 11 14 15 ;
# set Demand_pathLinks[ 63, 4 ] := 10 7 8 15 ;

# set Demand_pathLinks[ 64, 1 ] := 6 2 1 ;
# set Demand_pathLinks[ 64, 2 ] := 6 3 5 ;
# set Demand_pathLinks[ 64, 3 ] := 16 4 5 ;
# set Demand_pathLinks[ 64, 4 ] := 6 2 18 13 ;
# set Demand_pathLinks[ 64, 5 ] := 16 17 15 14 ;

# set Demand_pathLinks[ 65, 1 ] := 16 17 ;
# set Demand_pathLinks[ 65, 2 ] := 6 3 4 17 ;

# set Demand_pathLinks[ 66, 1 ] := 14 15 ;
# set Demand_pathLinks[ 66, 2 ] := 5 4 17 ;
# set Demand_pathLinks[ 66, 3 ] := 14 8 9 ;
# set Demand_pathLinks[ 66, 4 ] := 11 7 9 ;
# set Demand_pathLinks[ 66, 5 ] := 11 7 8 15 ;

